p cnf 75 581
29 60 0
30 53 61 0
3 31 62 0
10 17 24 55 63 0
4 64 0
19 56 65 73 0
20 34 48 66 0
7 14 21 27 35 43 49 57 75 0
50 67 0
-1 -9 3 0
-1 -10 0
-1 -11 4 0
-1 -12 5 0
-1 -13 6 0
-1 -14 7 0
-1 -15 0
-2 1 0
-2 3 0
-2 -17 0
-2 -18 4 0
-2 -19 5 0
-2 -20 6 0
-2 -21 7 0
-2 -22 0
-3 -24 0
-3 -25 4 0
-3 -26 6 0
-3 -27 7 0
-3 -28 0
-4 -38 1 0
-4 -39 2 0
-4 -40 3 0
-4 -41 0
-4 -42 5 0
-4 -43 7 0
-4 -44 0
-5 3 0
-5 -46 0
-5 -47 4 0
-5 -48 6 0
-5 -49 7 0
-5 -50 0
-6 -52 1 0
-6 -53 2 0
-6 -54 3 0
-6 -55 0
-6 4 0
-6 -56 5 0
-6 -57 7 0
-6 -58 0
-7 -60 1 0
-7 -61 2 0
-7 -62 3 0
-7 -63 0
-7 -64 4 0
-7 -65 5 0
-7 -66 6 0
-7 -67 0
-8 -2 0
-8 -3 9 0
-8 -4 11 0
-8 -5 12 0
-8 -6 13 0
-8 -7 14 0
-9 -23 8 0
-9 -24 10 0
-9 -25 11 0
-9 -26 13 0
-9 -27 14 0
-9 -28 15 0
-10 8 0
-10 -30 0
-10 -31 9 0
-10 -32 11 0
-10 -33 12 0
-10 -34 13 0
-10 -35 14 0
-10 -36 15 0
-11 -37 8 0
-11 -39 0
-11 -40 9 0
-11 -41 10 0
-11 -42 12 0
-11 -43 14 0
-11 -44 15 0
-12 -45 8 0
-12 9 0
-12 -46 10 0
-12 -47 11 0
-12 -48 13 0
-12 -49 14 0
-12 -50 15 0
-13 -51 8 0
-13 -53 0
-13 -54 9 0
-13 -55 10 0
-13 11 0
-13 -56 12 0
-13 -57 14 0
-13 -58 15 0
-14 -59 8 0
-14 -61 0
-14 -62 9 0
-14 -63 10 0
-14 -64 11 0
-14 -65 12 0
-14 -66 13 0
-14 -67 15 0
-15 8 0
-15 -69 0
-15 -70 9 0
-15 -71 10 0
-15 -72 11 0
-15 -73 12 0
-15 -74 13 0
-15 -75 14 0
-16 -4 18 0
-16 -5 19 0
-16 -6 20 0
-16 -7 21 0
-8 16 0
-10 17 0
-11 18 0
-12 19 0
-13 20 0
-14 21 0
-15 22 0
-23 16 0
-24 17 0
-25 18 0
-26 20 0
-27 21 0
-28 22 0
-17 16 0
-17 -32 18 0
-17 -33 19 0
-17 -34 20 0
-17 -35 21 0
-17 -36 22 0
-18 -37 16 0
-18 -41 17 0
-18 -42 19 0
-18 -43 21 0
-18 -44 22 0
-19 -45 16 0
-19 -46 17 0
-19 -47 18 0
-19 -48 20 0
-19 -49 21 0
-19 -50 22 0
-20 -51 16 0
-20 -55 17 0
-20 18 0
-20 -56 19 0
-20 -57 21 0
-20 -58 22 0
-21 -59 16 0
-21 -63 17 0
-21 -64 18 0
-21 -65 19 0
-21 -66 20 0
-21 -67 22 0
-22 16 0
-22 -71 17 0
-22 -72 18 0
-22 -73 19 0
-22 -74 20 0
-22 -75 21 0
-23 -1 0
-23 -2 0
-23 -4 25 0
-23 -5 0
-23 -6 26 0
-23 -7 27 0
-24 23 0
-24 -29 0
-24 -30 0
-24 -32 25 0
-24 -33 0
-24 -34 26 0
-24 -35 27 0
-24 -36 28 0
-25 -37 23 0
-25 -38 0
-25 -39 0
-25 -41 24 0
-25 -42 0
-25 -43 27 0
-25 -44 28 0
-26 -51 23 0
-26 -52 0
-26 -53 0
-26 -55 24 0
-26 25 0
-26 -56 0
-26 -57 27 0
-26 -58 28 0
-27 -59 23 0
-27 -60 0
-27 -61 0
-27 -63 24 0
-27 -64 25 0
-27 -65 0
-27 -66 26 0
-27 -67 28 0
-28 23 0
-28 -68 0
-28 -69 0
-28 -71 24 0
-28 -72 25 0
-28 -73 0
-28 -74 26 0
-28 -75 27 0
-1 29 0
-2 30 0
-3 31 0
-4 32 0
-5 33 0
-6 34 0
-7 35 0
-29 -9 31 0
-29 -11 32 0
-29 -12 33 0
-29 -13 34 0
-29 -14 35 0
-29 -15 36 0
-30 29 0
-30 31 0
-30 -18 32 0
-30 -19 33 0
-30 -20 34 0
-30 -21 35 0
-30 -22 36 0
-31 -25 32 0
-31 -26 34 0
-31 -27 35 0
-31 -28 36 0
-32 -38 29 0
-32 -39 30 0
-32 -40 31 0
-32 -42 33 0
-32 -43 35 0
-32 -44 36 0
-33 31 0
-33 -47 32 0
-33 -48 34 0
-33 -49 35 0
-33 -50 36 0
-34 -52 29 0
-34 -53 30 0
-34 -54 31 0
-34 32 0
-34 -56 33 0
-34 -57 35 0
-34 -58 36 0
-35 -60 29 0
-35 -61 30 0
-35 -62 31 0
-35 -64 32 0
-35 -65 33 0
-35 -66 34 0
-35 -67 36 0
-36 -68 29 0
-36 -69 30 0
-36 -70 31 0
-36 -72 32 0
-36 -73 33 0
-36 -74 34 0
-36 -75 35 0
-37 -1 38 0
-37 -2 39 0
-37 -3 40 0
-37 -5 42 0
-37 -6 0
-37 -7 43 0
-38 -8 37 0
-38 -9 40 0
-38 -10 41 0
-38 -12 42 0
-38 -13 0
-38 -14 43 0
-38 -15 44 0
-39 -16 37 0
-39 38 0
-39 40 0
-39 -17 41 0
-39 -19 42 0
-39 -20 0
-39 -21 43 0
-39 -22 44 0
-40 -23 37 0
-40 -24 41 0
-40 -26 0
-40 -27 43 0
-40 -28 44 0
-41 37 0
-41 -29 38 0
-41 -30 39 0
-41 -31 40 0
-41 -33 42 0
-41 -34 0
-41 -35 43 0
-41 -36 44 0
-42 -45 37 0
-42 40 0
-42 -46 41 0
-42 -48 0
-42 -49 43 0
-42 -50 44 0
-43 -59 37 0
-43 -60 38 0
-43 -61 39 0
-43 -62 40 0
-43 -63 41 0
-43 -65 42 0
-43 -66 0
-43 -67 44 0
-44 37 0
-44 -68 38 0
-44 -69 39 0
-44 -70 40 0
-44 -71 41 0
-44 -73 42 0
-44 -74 0
-44 -75 43 0
-45 -1 0
-45 -2 0
-45 -4 47 0
-45 -6 48 0
-45 -7 49 0
-23 45 0
-24 46 0
-25 47 0
-26 48 0
-27 49 0
-28 50 0
-46 45 0
-46 -29 0
-46 -30 0
-46 -32 47 0
-46 -34 48 0
-46 -35 49 0
-46 -36 50 0
-47 -37 45 0
-47 -38 0
-47 -39 0
-47 -41 46 0
-47 -43 49 0
-47 -44 50 0
-48 -51 45 0
-48 -52 0
-48 -53 0
-48 -55 46 0
-48 47 0
-48 -57 49 0
-48 -58 50 0
-49 -59 45 0
-49 -60 0
-49 -61 0
-49 -63 46 0
-49 -64 47 0
-49 -66 48 0
-49 -67 50 0
-50 45 0
-50 -68 0
-50 -69 0
-50 -71 46 0
-50 -72 47 0
-50 -74 48 0
-50 -75 49 0
-51 -1 52 0
-51 -2 53 0
-51 -3 54 0
-51 -5 56 0
-51 -7 57 0
-52 -8 51 0
-52 -9 54 0
-52 -10 55 0
-52 -12 56 0
-52 -14 57 0
-52 -15 58 0
-53 -16 51 0
-53 52 0
-53 54 0
-53 -17 55 0
-53 -19 56 0
-53 -21 57 0
-53 -22 58 0
-54 -23 51 0
-54 -24 55 0
-54 -27 57 0
-54 -28 58 0
-55 51 0
-55 -29 52 0
-55 -30 53 0
-55 -31 54 0
-55 -33 56 0
-55 -35 57 0
-55 -36 58 0
-37 51 0
-38 52 0
-39 53 0
-40 54 0
-41 55 0
-42 56 0
-43 57 0
-44 58 0
-56 -45 51 0
-56 54 0
-56 -46 55 0
-56 -49 57 0
-56 -50 58 0
-57 -59 51 0
-57 -60 52 0
-57 -61 53 0
-57 -62 54 0
-57 -63 55 0
-57 -65 56 0
-57 -67 58 0
-58 51 0
-58 -68 52 0
-58 -69 53 0
-58 -70 54 0
-58 -71 55 0
-58 -73 56 0
-58 -75 57 0
-59 -1 60 0
-59 -2 61 0
-59 -3 62 0
-59 -4 64 0
-59 -5 65 0
-59 -6 66 0
-60 -8 59 0
-60 -9 62 0
-60 -10 63 0
-60 -11 64 0
-60 -12 65 0
-60 -13 66 0
-60 -15 67 0
-61 -16 59 0
-61 60 0
-61 62 0
-61 -17 63 0
-61 -18 64 0
-61 -19 65 0
-61 -20 66 0
-61 -22 67 0
-62 -23 59 0
-62 -24 63 0
-62 -25 64 0
-62 -26 66 0
-62 -28 67 0
-63 59 0
-63 -29 60 0
-63 -30 61 0
-63 -31 62 0
-63 -32 64 0
-63 -33 65 0
-63 -34 66 0
-63 -36 67 0
-64 -37 59 0
-64 -38 60 0
-64 -39 61 0
-64 -40 62 0
-64 -41 63 0
-64 -42 65 0
-64 -44 67 0
-65 -45 59 0
-65 62 0
-65 -46 63 0
-65 -47 64 0
-65 -48 66 0
-65 -50 67 0
-66 -51 59 0
-66 -52 60 0
-66 -53 61 0
-66 -54 62 0
-66 -55 63 0
-66 64 0
-66 -56 65 0
-66 -58 67 0
-67 59 0
-67 -68 60 0
-67 -69 61 0
-67 -70 62 0
-67 -71 63 0
-67 -72 64 0
-67 -73 65 0
-67 -74 66 0
-1 68 0
-2 69 0
-3 70 0
-4 72 0
-5 73 0
-6 74 0
-7 75 0
-68 -9 70 0
-68 -10 71 0
-68 -11 72 0
-68 -12 73 0
-68 -13 74 0
-68 -14 75 0
-69 68 0
-69 70 0
-69 -17 71 0
-69 -18 72 0
-69 -19 73 0
-69 -20 74 0
-69 -21 75 0
-70 -24 71 0
-70 -25 72 0
-70 -26 74 0
-70 -27 75 0
-71 -29 68 0
-71 -30 69 0
-71 -31 70 0
-71 -32 72 0
-71 -33 73 0
-71 -34 74 0
-71 -35 75 0
-72 -38 68 0
-72 -39 69 0
-72 -40 70 0
-72 -41 71 0
-72 -42 73 0
-72 -43 75 0
-73 70 0
-73 -46 71 0
-73 -47 72 0
-73 -48 74 0
-73 -49 75 0
-74 -52 68 0
-74 -53 69 0
-74 -54 70 0
-74 -55 71 0
-74 72 0
-74 -56 73 0
-74 -57 75 0
-75 -60 68 0
-75 -61 69 0
-75 -62 70 0
-75 -63 71 0
-75 -64 72 0
-75 -65 73 0
-75 -66 74 0
-1 -8 0
-2 -16 0
-3 -23 0
-4 -37 0
-5 -45 0
-6 -51 0
-7 -59 0
-10 -29 0
-11 -38 0
-13 -52 0
-14 -60 0
-15 -68 0
-17 -30 0
-18 -39 0
-20 -53 0
-21 -61 0
-22 -69 0
-24 -31 0
-25 -40 0
-26 -54 0
-27 -62 0
-28 -70 0
-32 -41 0
-33 -46 0
-34 -55 0
-35 -63 0
-36 -71 0
-42 -47 0
-43 -64 0
-44 -72 0
-48 -56 0
-49 -65 0
-50 -73 0
-57 -66 0
-58 -74 0
-67 -75 0
